(set-info :Origin "This instance was generated by: BanditFuzz-- an RL fuzzer for SMT solvers" )
(set-info :Author "Joe Scott, Fed Mora, Vijay Ganesh" )
(set-info :Contact "Joe Scott, joseph.scott@uwaterloo.ca")
(set-logic QF_BV)
(declare-const bool_0 Bool)
(declare-const bool_1 Bool)
(declare-const bool_2 Bool)
(declare-const bool_3 Bool)
(declare-const bool_4 Bool)
(declare-const bv_0 (_ BitVec 32))
(declare-const bv_1 (_ BitVec 32))
(declare-const bv_2 (_ BitVec 32))
(declare-const bv_3 (_ BitVec 32))
(declare-const bv_4 (_ BitVec 32))
(assert (=> (xor (bvsgt bv_2 bv_4) (bvule #xafcdf127  bv_3)) (bvsle (bvnor bv_0 #x53d3d722 ) (bvmul #x24e05ea6  bv_1))))
(assert (=> (bvugt (bvxor #xbecaecdc  bv_2) (bvxor bv_4 #x95da3ff0 )) (=> (bvslt bv_3 #xb1f93b4d ) (bvsgt #x237fd62b  #x7da8d28f ))))
(assert (bvsgt (bvsmod (bvsub #x71cb691c  bv_1) (bvmul bv_2 #xbb86a8ff )) (bvmul (bvsrem bv_0 #xd1a83e54 ) (bvxor #x07481a37  #xc52cc17b ))))
(assert (bvult (bvnor (bvmul #xe97c5ea9  bv_2) (bvxnor bv_2 #xac893f91 )) (bvnor (bvurem bv_0 #x952917be ) (bvadd bv_4 bv_4))))
(assert (bvuge (bvand (bvurem #xdc2124e4  #xd1d618f3 ) (bvsub #x734ee859  bv_3)) (bvlshr (bvsrem bv_0 bv_4) (bvnand #xe07f3d11  bv_0))))
(check-sat)
(exit)
